
Gurobi 10.0.3 (linux64, gurobi_cl) logging started Thu Nov  2 11:33:57 2023

Set parameter Username
Set parameter TimeLimit to value 3600
Set parameter LogFile to value "RCPSP_209.log"
Set parameter Threads to value 32
Academic license - for non-commercial use only - expires 2024-10-30
Using license file /home/jrivera6/gurobi-licenses/v1003/compute-0-38/gurobi.lic

Gurobi Optimizer version 10.0.3 build v10.0.3rc0 (linux64)
Copyright (c) 2023, Gurobi Optimization, LLC

Read MPS format model from file RCPSP_209.mps
Reading time = 0.01 seconds
RCPSP_209: 5339 rows, 2080 columns, 17054 nonzeros

CPU model: Intel(R) Xeon(R) Gold 6242 CPU @ 2.80GHz, instruction set [SSE2|AVX|AVX2|AVX512]
Thread count: 32 physical cores, 32 logical processors, using up to 32 threads

Optimize a model with 5339 rows, 2080 columns and 17054 nonzeros
Model fingerprint: 0xa4924214
Variable types: 32 continuous, 2048 integer (2048 binary)
Coefficient statistics:
  Matrix range     [1e+00, 1e+02]
  Objective range  [1e+00, 1e+00]
  Bounds range     [1e+00, 1e+00]
  RHS range        [1e+00, 2e+02]
Presolve removed 3335 rows and 1292 columns
Presolve time: 0.17s
Presolved: 2004 rows, 788 columns, 6271 nonzeros
Variable types: 31 continuous, 757 integer (757 binary)

Root relaxation: objective 4.900000e+01, 269 iterations, 0.00 seconds (0.00 work units)

    Nodes    |    Current Node    |     Objective Bounds      |     Work
 Expl Unexpl |  Obj  Depth IntInf | Incumbent    BestBd   Gap | It/Node Time

     0     0   49.00000    0   29          -   49.00000      -     -    0s
     0     0   51.00000    0   23          -   51.00000      -     -    0s
H    0     0                      93.0000000   51.00000  45.2%     -    0s
     0     0   51.00000    0   50   93.00000   51.00000  45.2%     -    0s
     0     0   51.00000    0   50   93.00000   51.00000  45.2%     -    0s
     0     0   51.00000    0   41   93.00000   51.00000  45.2%     -    0s
     0     0   51.56967    0   62   93.00000   51.56967  44.5%     -    1s
     0     0   54.99983    0   23   93.00000   54.99983  40.9%     -    1s
     0     0   55.00014    0   29   93.00000   55.00014  40.9%     -    1s
H    0     0                      92.0000000   55.00014  40.2%     -    1s
     0     0   55.53689    0   64   92.00000   55.53689  39.6%     -    1s
H    0     0                      89.0000000   55.53689  37.6%     -    1s
H    0     0                      86.0000000   55.74113  35.2%     -    1s
     0     0   55.74113    0   27   86.00000   55.74113  35.2%     -    1s
     0     0   55.84731    0   39   86.00000   55.84731  35.1%     -    1s
H    0     0                      73.0000000   55.84731  23.5%     -    1s
     0     0   55.84731    0   29   73.00000   55.84731  23.5%     -    1s
     0     0   55.84883    0   80   73.00000   55.84883  23.5%     -    1s
H    0     0                      72.0000000   55.84883  22.4%     -    1s
     0     0   55.84883    0   34   72.00000   55.84883  22.4%     -    1s
     0     0   55.84883    0   72   72.00000   55.84883  22.4%     -    1s
H    0     0                      71.0000000   55.84883  21.3%     -    1s
     0     0   55.84883    0   79   71.00000   55.84883  21.3%     -    1s
     0     0   55.84883    0   39   71.00000   55.84883  21.3%     -    2s
     0     0   55.84883    0   38   71.00000   55.84883  21.3%     -    2s
     0     0   55.84883    0   87   71.00000   55.84883  21.3%     -    2s
     0     0   55.86033    0   53   71.00000   55.86033  21.3%     -    2s
H    0     0                      71.0000000   55.86033  21.3%     -    2s
     0     0   55.86088    0   93   71.00000   55.86088  21.3%     -    2s
     0     0   55.86088    0   87   71.00000   55.86088  21.3%     -    2s
     0     0   55.86088    0   65   71.00000   55.86088  21.3%     -    2s
     0     0   55.86088    0   94   71.00000   55.86088  21.3%     -    2s
     0     0   55.86088    0   26   71.00000   55.86088  21.3%     -    2s
     0     2   55.86088    0   20   71.00000   55.86088  21.3%     -    3s
    24    35   55.98766    5   48   71.00000   55.98766  21.1%   135    5s
H   43    48                      70.0000000   55.98766  20.0%   114    6s
  1240   554   64.00000   14   64   70.00000   57.99301  17.2%  23.2   11s
H 1241   554                      70.0000000   57.99301  17.2%  23.1   11s
* 1380   588              32      69.0000000   57.99301  16.0%  22.5   11s
  3470     0   64.00000   11   78   69.00000   64.00000  7.25%  16.6   15s

Cutting planes:
  Gomory: 11
  Cover: 35
  Implied bound: 242
  Clique: 11
  MIR: 419
  StrongCG: 1
  Inf proof: 25
  RLT: 133
  Relax-and-lift: 92

Explored 3485 nodes (66078 simplex iterations) in 15.21 seconds (1.38 work units)
Thread count was 32 (of 32 available processors)

Solution count 10: 69 70 70 ... 92

Optimal solution found (tolerance 1.00e-04)
Best objective 6.900000000000e+01, best bound 6.900000000000e+01, gap 0.0000%

Wrote result file 'RCPSP_209.sol'

